c 1 ~ pos(1,1)
c 2 ~ pos(1,2)
c 3 ~ pos(1,3)
c 4 ~ pos(2,1)
c 5 ~ pos(2,2)
c 6 ~ pos(2,3)
c 7 ~ pos(3,1)
c 8 ~ pos(3,2)
c 9 ~ pos(3,3)
c 10 ~ pos(4,1)
c 11 ~ pos(4,2)
c 12 ~ pos(4,3)
p cnf 12 39
1 4 7 10 0
-1 -4 0
-1 -7 0
-1 -10 0
-4 -7 0
-4 -10 0
-7 -10 0
2 5 8 11 0
-2 -5 0
-2 -8 0
-2 -11 0
-5 -8 0
-5 -11 0
-8 -11 0
3 6 9 12 0
-3 -6 0
-3 -9 0
-3 -12 0
-6 -9 0
-6 -12 0
-9 -12 0
-1 -2 0
-1 -3 0
-2 -3 0
-4 -5 0
-4 -6 0
-5 -6 0
-7 -8 0
-7 -9 0
-8 -9 0
-10 -11 0
-10 -12 0
-11 -12 0
-1 -8 0
-1 -9 0
-2 -7 0
-2 -9 0
-3 -7 0
-3 -8 0
